54
75
60	8
59	15
58	8
57	11
56	9
55	10
54	10
53	11
52	7
51	12
50	11
49	11
48	9
47	6
46	12
45	14
44	7
43	9
42	6
41	7
40	8
39	7
38	6
37	15
36	11
35	2
34	10
33	12
32	7
31	5
30	6
29	7
28	5
27	12
26	7
25	4
24	13
23	12
22	10
21	14
20	8
19	10
18	9
17	12
16	10
15	13
14	4
13	10
12	9
11	8
10	6
9	9
8	13
7	13
